1 1554 7
2 1423 7
3 1420 7
5 1340 7
10 1318 7
14 1269 7
562 1258 7
866 1229 7



1 1624 8
2 1435 7
3 1308 7
19 1298 7
82 1269 7
120 1237 7



1 1699 8
2 1454 7
3 1420 7
5 1413 7
7 1410 7
8 1403 7
9 1382 7
11 1335 7
24 1272 7
70 1264 7
923 1263 7



1 1756 8
2 1475 8
3 1423 7
5 1404 8
7 1302 7
33 1301 7
183 1275 7
422 1252 7



1 1637 7
2 1434 8
4 1394 7
5 1378 7
15 1340 7
18 1322 7
20 1305 7
40 1278 7
44 1275 7
70 1246 7



